/*********************************************
 * OPL 12.6.0.0 Data
 * Author: Adrian Rodriguez Bazaga, Pau Rodriguez Esmerats
 * Creation Date: 22/11/2017 at 18:56:20
 *********************************************/

nNurses=50;
maxConsec=2;
maxPresence=7;
maxHours=5;
minHours=1;
demand= [12 14 20 18 14 20 18 14 17 6 3 0 3 1 4 1 1 1 1 1 8 14 7 13  ];
